NAME shedding_srl_ilp
* Max problem is converted into Min one
ROWS
 N  OBJ
 L  constraint1_1730
 L  constraint2_1730
 L  constraint2_1731
 L  constraint2_1732
 L  constraint2_1733
COLUMNS
    MARKER    'MARKER'                 'INTORG'
    Z_173_0_0  OBJ       -2.3042600382656858e-04
    Z_173_0_0  constraint1_1730  1
    Z_173_0_0  constraint2_1730  1
    Z_173_0_1  OBJ       -6.8605349785155400e-03
    Z_173_0_1  constraint1_1730  1
    Z_173_0_1  constraint2_1731  1
    Z_173_0_2  OBJ       -8.5292670024702699e-01
    Z_173_0_2  constraint1_1730  1
    Z_173_0_2  constraint2_1732  1
    Z_173_0_3  OBJ       -2.0727099911962508e-03
    Z_173_0_3  constraint1_1730  1
    Z_173_0_3  constraint2_1733  1
    Z_173_0_4  OBJ       -3.7909628779434559e-02
    Z_173_0_4  constraint1_1730  1
    MARKER    'MARKER'                 'INTEND'
RHS
    RHS1      constraint1_1730  1
    RHS1      constraint2_1730  1
    RHS1      constraint2_1731  1
    RHS1      constraint2_1732  1
    RHS1      constraint2_1733  1
BOUNDS
 UP BND1      Z_173_0_0  1
 UP BND1      Z_173_0_1  1
 UP BND1      Z_173_0_2  1
 UP BND1      Z_173_0_3  1
 UP BND1      Z_173_0_4  1
ENDATA
